WARNING: for repeatability, setting FPU to use double precision
============================[ Problem Statistics ]=============================
|                                                                             |
|  Number of variables:            50                                         |
|  Number of clauses:             218                                         |
|  Parse time:                   0.00 s                                       |
|                                                                             |
============================[ Search Statistics ]==============================
| Conflicts |          ORIGINAL         |          LEARNT          | Progress |
|           |    Vars  Clauses Literals |    Limit  Clauses Lit/Cl |          |
===============================================================================
===============================================================================
restarts              : 1
conflicts             : 7              (5076 /sec)
decisions             : 17             (0.00 % random) (12328 /sec)
propagations          : 164            (118927 /sec)
conflict literals     : 36             (5.26 % deleted)
Memory used           : 20.00 MB
CPU time              : 0.001379 s

SATISFIABLE
